TCS_Benchmarks/redos_fix/snort3_output_distinct_2188_2187_0_0.txt
([^\n\r]*)([^\n\r]*)
([^\n\r]*)([nN][iI][cC][kK]_[nN][aA][mM][eE]=[cC][iI][aA]-[tT][eE][sS][tT])([^\n\r]*)